sets/C/cp-n23-k5.vrp
NAME : (null)
COMMENT : (null)
TYPE : CVRP
DIMENSION : 23
EDGE_WEIGHT_TYPE : EUC_2D
CAPACITY : 68
NODE_COORD_SECTION
 1   3  17
 2   3  15
 3  11  18
 4  21  10
 5  15  19
 6  11  15
 7  21  21
 8   6  20
 9  14  12
10   8   0
11   6  14
12  18  18
13   4  13
14   2   9
15  22   9
16   5  19
17  11  13
18  18   6
19  22  15
20  13   1
21  17   8
22   0   8
23  16  10
DEMAND_SECTION
 1   0
 2  10
 3  17
 4  17
 5  21
 6  12
 7  21
 8  23
 9  12
10  14
11  17
12   9
13  23
14  17
15  21
16  18
17   6
18   4
19  22
20  19
21  20
22  12
23  15
DEPOT_SECTION
 1
-1
EOF