sets/C/cp-n23-k5.opt
Route #1: 7 15
Route #2: 13 21 9 19
Route #3: 11 6 4 2
Route #4: 1 12 10
Route #5: 18 3 14 17
Route #6: 16 8 20 22 5
cost 183
